! Solving for graph ../../../benchmarks/raw/linear/S-sherman4.mtx.rnd
! Target value is set to 448
! No predefined lower bound found. Lower bound is set to 1
! No predefined upper bound found. Upper bound is set to 244161
 ! --------------------------------------------------- CP Optimizer 22.2.0.0 --
 ! Minimization problem - 547 variables, 1887 constraints, 1 phase
 ! TimeLimit            = 150
 ! LogVerbosity         = Verbose
 ! Initial process time : 0.02s (0.02s extraction + 0.00s propagation)
 !  . Log search space  : 9789.9 (before), 9789.9 (after)
 !  . Memory usage      : 929.7 kB (before), 929.7 kB (after)
 ! Using parallel search with 8 workers.
 ! ----------------------------------------------------------------------------
 !          Best Branches  Non-fixed    W       Branch decision
                        0        547                 -
 + New bound is 1
                        0        547    1   F        -
 + New bound is 449
 *           449        1  0.33s        1      (gap is 0.00%)
 ! ----------------------------------------------------------------------------
 ! Search completed, 1 solution found.
 ! Best objective         : 449 (optimal - effective tol. is 0)
 ! Best bound             : 449
 ! ----------------------------------------------------------------------------
 ! Number of branches     : 4008
 ! Number of fails        : 116
 ! Total memory usage     : 165.1 MB (164.3 MB CP Optimizer + 0.8 MB Concert)
 ! Time spent in solve    : 0.33s (0.31s engine + 0.02s extraction)
 ! Search speed (br. / s) : 13360.0
 ! ----------------------------------------------------------------------------
! --------------------------------------------------------
! Best span = 449
! Labeling: 449 449 1 1 1 449 449 449 449 449 1 449 449 1 449 449 449 1 1 1 449 1 1 449 1 1 449 449 449 1 1 1 1 1 449 449 1 449 1 449 449 1 449 1 1 1 1 1 1 1 1 1 449 449 1 449 449 1 1 1 1 1 1 1 1 449 1 449 1 449 1 449 449 449 449 449 449 1 449 449 1 1 449 1 449 449 1 449 449 449 449 449 1 1 449 1 449 1 1 1 1 449 449 1 1 1 1 449 1 449 1 449 449 449 449 1 1 1 1 1 449 1 1 1 1 1 1 449 1 1 449 1 1 1 1 449 449 1 449 1 1 1 449 449 449 449 449 449 1 449 449 1 449 449 1 1 1 1 449 449 449 449 1 449 1 1 449 1 449 449 449 449 1 1 449 1 1 1 449 449 449 449 449 449 449 1 1 1 1 449 449 1 449 1 1 1 449 449 449 1 449 449 449 1 1 1 449 449 1 449 449 1 449 1 449 449 1 449 1 1 1 1 449 449 449 1 449 1 1 449 1 449 449 1 1 1 1 449 449 449 1 1 449 449 1 1 1 1 449 449 449 449 1 1 1 1 449 1 1 449 449 1 449 449 1 1 1 1 1 1 449 1 1 449 449 449 1 449 1 1 1 449 1 449 1 1 449 1 1 449 449 1 1 1 1 1 449 449 1 1 449 449 449 449 449 1 449 449 449 449 1 1 449 1 449 1 449 449 1 449 1 1 449 449 1 449 449 1 1 449 449 449 1 1 1 1 1 1 449 449 1 1 449 1 1 449 1 449 1 449 449 449 1 449 1 449 449 449 449 449 449 449 449 1 449 1 1 1 1 449 1 449 449 449 449 1 449 449 1 449 449 449 1 1 1 449 1 449 449 449 449 1 449 1 1 1 449 449 449 1 1 1 449 449 1 449 1 449 449 1 449 1 1 1 1 449 449 449 1 449 449 449 449 1 1 1 449 449 449 449 1 449 449 1 1 1 1 449 1 1 449 449 1 449 449 449 1 449 449 1 449 1 1 1 1 449 449 449 449 449 1 1 449 449 1 449 1 1 1 1 449 1 1 449 449 1 449 1 449 1 1 449 449 1 449 449 449 449 1 449 449 449 449 1 449 1 449 1 449 449 1 449 1 1 1 1 1 1 449 1 1 1 1 1 1 1 449 1 449 1 449 449 449 1 449 449 1 1 1 449 1 449 449 1 1 449 449 449 1 449 449 449 449 449 1 1 
! -------------------------------------------------------- 
